7

0   24   11   4   11   9   16
24   0   21   2   20   6   5
11   21   0   13   13   14   20
4   2   13   0   11   16   15
11   20   13   11   0   14   18
9   6   14   16   14   0   19
16   5   20   15   18   19   0

0   27   62   39   39   23   47
27   0   35   20   20   12   28
62   35   0   25   41   39   47
39   20   25   0   16   32   22
39   20   41   16   0   32   8
23   12   39   32   32   0   40
47   28   47   22   8   40   0